
Gurobi 11.0.3 (linux64) logging started Mon 18 Nov 2024 07:54:07 PM CST

Set parameter LogFile to value "/home/dlcole3/graph_abstraction/hierarchical_graphs/git_storage/CS1/HP_low_reserves/gurobi_logs/serial/logfile_ST6_8.log"

Gurobi 11.0.3 (linux64) logging started Mon 18 Nov 2024 08:11:46 PM CST

Set parameter LogFile to value "/home/dlcole3/graph_abstraction/hierarchical_graphs/git_storage/CS1/HP_low_reserves/gurobi_logs/serial/logfile_ST6_8.log"
Gurobi Optimizer version 11.0.3 build v11.0.3rc0 (linux64 - "Ubuntu 18.04.3 LTS")

CPU model: Intel(R) Xeon(R) CPU E5-2698 v4 @ 2.20GHz, instruction set [SSE2|AVX|AVX2]
Thread count: 40 physical cores, 80 logical processors, using up to 20 threads

Optimize a model with 29168 rows, 50688 columns and 136175 nonzeros
Model fingerprint: 0xcb5d2f97
Variable types: 46944 continuous, 3744 integer (3744 binary)
Coefficient statistics:
  Matrix range     [6e-01, 2e+04]
  Objective range  [2e+00, 2e+04]
  Bounds range     [5e-02, 2e+05]
  RHS range        [5e-02, 7e+03]
Presolve removed 14483 rows and 38735 columns
Presolve time: 0.33s
Presolved: 14685 rows, 11953 columns, 62647 nonzeros
Variable types: 8980 continuous, 2973 integer (2973 binary)
Found heuristic solution: objective 172683.97279
Found heuristic solution: objective 169297.13932
Found heuristic solution: objective 142700.35991

Root relaxation: objective 4.240611e+04, 7541 iterations, 0.31 seconds (0.22 work units)

    Nodes    |    Current Node    |     Objective Bounds      |     Work
 Expl Unexpl |  Obj  Depth IntInf | Incumbent    BestBd   Gap | It/Node Time

     0     0 42406.1087    0    5 142700.360 42406.1087  70.3%     -    1s
H    0     0                    44395.973978 42406.1087  4.48%     -    1s
H    0     0                    44312.275942 42406.1087  4.30%     -    1s
     0     0 42406.1087    0    5 44312.2759 42406.1087  4.30%     -    1s
     0     0 42406.1087    0    1 44312.2759 42406.1087  4.30%     -    2s
H    0     0                    42853.801312 42406.1087  1.04%     -    2s
     0     0 42406.1087    0    2 42853.8013 42406.1087  1.04%     -    2s
     0     0 42411.6926    0    1 42853.8013 42411.6926  1.03%     -    2s
     0     0 42411.6926    0    2 42853.8013 42411.6926  1.03%     -    2s
H    0     0                    42853.042879 42411.6926  1.03%     -    2s
     0     0 42448.9998    0    1 42853.0429 42448.9998  0.94%     -    2s
     0     0 42448.9998    0    3 42853.0429 42448.9998  0.94%     -    2s
     0     0 42448.9998    0    3 42853.0429 42448.9998  0.94%     -    2s
     0     0 42449.0547    0    1 42853.0429 42449.0547  0.94%     -    2s
     0     0 42449.0547    0    3 42853.0429 42449.0547  0.94%     -    3s

Cutting planes:
  Gomory: 3

Explored 1 nodes (14118 simplex iterations) in 3.06 seconds (1.80 work units)
Thread count was 20 (of 80 available processors)

Solution count 9: 42853 42853 42853.8 ... 624048

Optimal solution found (tolerance 3.00e-03)
Best objective 4.285304287858e+04, best bound 4.279995124609e+04, gap 0.1239%

User-callback calls 1590, time in user-callback 0.00 sec
